WARNING: for repeatability, setting FPU to use double precision
============================[ Problem Statistics ]=============================
|                                                                             |
|  Number of variables:           100                                         |
|  Number of clauses:             449                                         |
|  Parse time:                   0.00 s                                       |
|  Eliminated clauses:           0.00 Mb                                      |
|  Simplification time:          0.00 s                                       |
|                                                                             |
============================[ Search Statistics ]==============================
| Conflicts |          ORIGINAL         |          LEARNT          | Progress |
|           |    Vars  Clauses Literals |    Limit  Clauses Lit/Cl |          |
===============================================================================
|       100 |      96      435     1322 |      159      100      7 |  0.010 % |
|       250 |      96      435     1322 |      175      169      6 |  0.010 % |
===============================================================================
restarts              : 3
conflicts             : 400            (112202 /sec)
decisions             : 503            (0.00 % random) (141094 /sec)
propagations          : 8619           (2417672 /sec)
conflict literals     : 2363           (20.76 % deleted)
Memory used           : 13.00 MB
CPU time              : 0.003565 s

SATISFIABLE
